Gurobi 12.0.1:   lim:time = 14400
  mip:bestbound = 1
Set parameter LogToConsole to value 1
  tech:outlev = 1
Set parameter Cuts to value 3
  cut:cuts = 3
Set parameter Presolve to value 2
  pre:solve = 2
Set parameter MIPFocus to value 2
  mip:focus = 2
Set parameter Symmetry to value 2
  mip:symmetry = 2
Set parameter InfUnbdInfo to value 1
Gurobi Optimizer version 12.0.1 build v12.0.1rc0 (win64 - Windows 11.0 (26100.2))

CPU model: Intel(R) Core(TM) i7-10700 CPU @ 2.90GHz, instruction set [SSE2|AVX|AVX2]
Thread count: 8 physical cores, 16 logical processors, using up to 16 threads

Non-default parameters:
TimeLimit  14400
MIPFocus  2
Symmetry  2
Cuts  3
InfUnbdInfo  1
Presolve  2

Optimize a model with 535 rows, 838 columns and 5045 nonzeros
Model fingerprint: 0xf4d4dcf9
Model has 4 quadratic constraints
Variable types: 35 continuous, 803 integer (0 binary)
Coefficient statistics:
  Matrix range     [1e+00, 1e+05]
  QMatrix range    [1e+00, 1e+00]
  QLMatrix range   [6e+00, 2e+01]
  Objective range  [7e+00, 1e+02]
  Bounds range     [1e+00, 1e+02]
  RHS range        [1e+00, 1e+05]
  QRHS range       [1e+02, 1e+02]
Presolve removed 49 rows and 85 columns
Presolve time: 0.11s
Presolved: 982 rows, 1145 columns, 7409 nonzeros
Variable types: 18 continuous, 1127 integer (1074 binary)
Root relaxation presolve removed 80 rows and 0 columns
Root relaxation presolved: 643 rows, 957 columns, 7554 nonzeros


Root relaxation: objective 2.520087e+02, 128 iterations, 0.01 seconds (0.01 work units)

    Nodes    |    Current Node    |     Objective Bounds      |     Work
 Expl Unexpl |  Obj  Depth IntInf | Incumbent    BestBd   Gap | It/Node Time

     0     0  252.00873    0   40          -  252.00873      -     -    0s
H    0     0                     798.3000000  252.00873  68.4%     -    0s
H    0     0                     708.4700000  274.15000  61.3%     -    0s
     0     0  289.75500    0   30  708.47000  289.75500  59.1%     -    0s
     0     0  289.75500    0   38  708.47000  289.75500  59.1%     -    0s
     0     0  289.75500    0   43  708.47000  289.75500  59.1%     -    0s
H    0     0                     598.5400000  289.75500  51.6%     -    0s
H    0     0                     597.1400000  289.75500  51.5%     -    0s
H    0     0                     518.2900000  289.75500  44.1%     -    0s
H    0     0                     485.7300000  289.97000  40.3%     -    0s
     0     0  289.97000    0   34  485.73000  289.97000  40.3%     -    0s
H    0     0                     455.1700000  289.97000  36.3%     -    0s
H    0     0                     436.9000000  289.97000  33.6%     -    0s
     0     0  289.97000    0   34  436.90000  289.97000  33.6%     -    0s
     0     0  289.97000    0   25  436.90000  289.97000  33.6%     -    0s
     0     0  289.97000    0   26  436.90000  289.97000  33.6%     -    0s
     0     0  289.97233    0   47  436.90000  289.97233  33.6%     -    1s
     0     0  289.97233    0   47  436.90000  289.97233  33.6%     -    1s
     0     2  289.97233    0   47  436.90000  289.97233  33.6%     -    1s
H  239   215                     428.2900000  289.98116  32.3%  21.4    1s
*  367   294              21     396.3200000  290.02144  26.8%  18.6    1s
*  737   517              28     390.1500000  290.51562  25.5%  17.1    1s
*  742   513              21     386.3900000  290.51562  24.8%  17.0    1s
H  921   611                     386.3100000  291.86903  24.4%  17.1    1s
H 1965  1051                     383.6700000  297.33500  22.5%  17.3    2s
  2469  1252  305.40000   18  114  383.67000  305.40000  20.4%  17.1    5s
  4553  1511  329.81667   23   35  383.67000  313.28087  18.3%  19.2   10s
 30744  5476  357.12333   32   34  383.67000  337.94989  11.9%  17.6   15s
 50405  5193  373.00570   33   14  383.67000  350.11566  8.75%  17.6   20s

Cutting planes:
  Learned: 3
  Gomory: 11
  Lift-and-project: 14
  Cover: 28
  Implied bound: 44
  Clique: 37
  MIR: 16
  Mixing: 4
  StrongCG: 8
  Flow cover: 79
  GUB cover: 8
  Inf proof: 56
  Zero half: 206
  RLT: 54
  Relax-and-lift: 28

Explored 70362 nodes (1225740 simplex iterations) in 25.04 seconds (20.86 work units)
Thread count was 16 (of 16 available processors)

Solution count 10: 383.67 383.67 386.31 ... 485.73

Optimal solution found (tolerance 1.00e-04)
Best objective 3.836700000000e+02, best bound 3.836700000000e+02, gap 0.0000%

AMPL MP initial flat model has 838 variables (0 integer, 803 binary);
Objectives: 1 linear; 
Constraints:  535 linear; 4 quadratic;

AMPL MP final model has 838 variables (0 integer, 803 binary);
Objectives: 1 linear; 
Constraints:  535 linear; 4 quadratic;


-----RESULTS INFO-----
running_time:  25.141000000000002
TC.best_bound:  383.67
TC:  383.66999999999996
MIP Gap (%):  1.4815705908934244e-14
=== Vehicle Routes ===
Vehicle 1: 0 → 21
Vehicle 1: 1 → 16
Vehicle 1: 3 → 14
Vehicle 1: 14 → 1
Vehicle 1: 16 → 23
Vehicle 1: 19 → 3
Vehicle 1: 21 → 19
Vehicle 2: 0 → 9
Vehicle 2: 2 → 23
Vehicle 2: 4 → 15
Vehicle 2: 9 → 4
Vehicle 2: 15 → 2
Vehicle 3: 0 → 23
Vehicle 4: 0 → 23

=== Full Vehicle Routes ===
Vehicle 1: 0 → 21 → 19 → 3 → 14 → 1 → 16 → 0 (99<100)
Vehicle 2: 0 → 9 → 4 → 15 → 2 → 0 (81<100)
Vehicle 3: 0 → 0 (0<100)
Vehicle 4: 0 → 0 (0<100)
Arc used by MRT line: y variables:
Customer assigment to PL: u variables:
5 15
6 19
7 14
8 16
10 21
11 14
12 15
Node is served by regular vehicle: g variables:
1
2
3
4
9
19
21
14
15
16
Customer assigment to Home delivery: gm variables:
1
2
3
4
9
Node total demands: ntd variables:
1 6 1
2 21 1
3 21 1
4 18 1
9 14 1
10 0 0
11 0 0
12 0 0
19 12 1
20 0 0
21 2 1
22 0 0
13 0 0
14 34 1
15 28 1
16 24 1
17 0 0
18 0 0
Customer's demand delivered to PL: l variables:
5
6
7
8
10
11
12
Lockers load <= capacity:
12 <= 86
0 <= 91
2 <= 79
0 <= 80
0 <= 70
34 <= 88
28 <= 88
24 <= 85
0 <= 79
0 <= 87
